
******************************************************************************
This program contains Ipopt, a library for large-scale nonlinear optimization.
 Ipopt is released as open source code under the Eclipse Public License (EPL).
         For more information visit http://projects.coin-or.org/Ipopt
******************************************************************************

This is Ipopt version 3.12.13, running with linear solver mumps.
NOTE: Other linear solvers might be more efficient (see Ipopt documentation).

Number of nonzeros in equality constraint Jacobian...:      365
Number of nonzeros in inequality constraint Jacobian.:      104
Number of nonzeros in Lagrangian Hessian.............:      140

Total number of variables............................:       85
                     variables with only lower bounds:       16
                variables with lower and upper bounds:       41
                     variables with only upper bounds:        0
Total number of equality constraints.................:       82
Total number of inequality constraints...............:       28
        inequality constraints with only lower bounds:        0
   inequality constraints with lower and upper bounds:        0
        inequality constraints with only upper bounds:       28

iter    objective    inf_pr   inf_du lg(mu)  ||d||  lg(rg) alpha_du alpha_pr  ls
   0  1.7604465e+03 9.90e-05 1.00e+02   0.0 0.00e+00    -  0.00e+00 0.00e+00   0
   1  1.7605000e+03 9.90e-05 6.72e+03   0.6 2.01e+02    -  1.28e-03 7.27e-07f  1
   2  1.8062742e+03 1.17e-03 1.16e+10   1.5 8.58e+00    -  1.35e-06 1.42e-02f  1
   3  1.8084374e+03 1.15e-03 1.14e+10   0.8 2.92e+00   4.0 4.08e-04 2.61e-02f  1
   4  1.8096555e+03 1.15e-03 1.14e+10   0.1 1.08e+01    -  1.29e-03 8.77e-04f  3
   5  1.8108973e+03 1.15e-03 1.13e+10  -0.6 2.86e+00   3.5 2.17e-04 4.96e-03f  2
   6  1.8103643e+03 1.15e-03 1.13e+10  -0.6 2.84e+00   3.9 3.18e-02 5.19e-03h  1
   7  1.8103681e+03 1.15e-03 1.13e+10  -0.6 2.83e+00    -  2.99e-02 5.49e-05h  1
   8  1.8083896e+03 1.11e-03 1.09e+10  -0.6 2.81e+00    -  1.05e-02 3.70e-02f  1
   9  1.8083665e+03 1.11e-03 1.09e+10  -1.3 2.70e+00    -  9.06e-02 2.16e-04h  1
iter    objective    inf_pr   inf_du lg(mu)  ||d||  lg(rg) alpha_du alpha_pr  ls
  10  1.8083710e+03 1.10e-03 1.78e+10  -1.3 2.70e+00  11.8 7.41e-06 7.21e-04f  1
  11r 1.8083710e+03 1.10e-03 1.00e+03  -1.3 0.00e+00    -  0.00e+00 2.69e-07R  5
  12r 1.8084693e+03 9.99e-04 9.94e+04  -1.0 2.54e+00    -  9.90e-01 4.31e-03f  1
  13  1.7815625e+03 1.71e-03 3.40e+03  -1.3 2.68e+00    -  6.66e-02 3.81e-02f  1
  14  1.7741137e+03 1.71e-03 1.89e+04  -1.3 2.60e+00    -  1.29e-01 1.29e-02f  1
  15  1.7598962e+03 1.65e-03 3.51e+04  -1.3 2.57e+00    -  2.25e-01 9.21e-02f  1
  16  1.8712261e+03 2.25e-04 8.63e+06   0.5 2.34e+00    -  1.00e+00 9.67e-01H  1
  17  1.7811077e+03 1.83e-04 2.90e+07   0.4 2.16e-01    -  1.00e+00 9.91e-01H  1
  18  1.7663640e+03 1.29e-04 3.97e+09  -0.3 3.74e-02    -  9.30e-01 1.00e+00f  1
  19  1.7648811e+03 1.60e-06 1.11e+03  -0.3 3.87e-03    -  1.00e+00 1.00e+00f  1
iter    objective    inf_pr   inf_du lg(mu)  ||d||  lg(rg) alpha_du alpha_pr  ls
  20  1.7686912e+03 8.99e-06 3.90e+02  -0.0 9.73e-03    -  1.00e+00 1.00e+00f  1
  21  1.7669555e+03 1.86e-06 3.52e+02  -0.1 4.43e-03    -  1.00e+00 1.00e+00f  1
  22  1.7616755e+03 1.73e-05 2.54e+07  -0.8 1.35e-02    -  5.71e-01 1.00e+00f  1
  23  1.7606557e+03 6.70e-07 1.33e+02  -1.6 4.70e-03    -  1.00e+00 1.00e+00f  1
  24  1.7608247e+03 1.78e-08 7.20e+01  -1.4 9.41e-03    -  1.00e+00 1.00e+00f  1
  25  1.7611247e+03 5.66e-08 1.82e+02  -1.1 1.88e-02    -  1.00e+00 1.00e+00f  1
  26  1.7610141e+03 7.93e-09 7.60e+05  -1.2 3.77e-02    -  5.54e-01 1.00e+00f  1
  27  1.7615265e+03 1.66e-07 1.16e+03  -0.9 8.17e-02    -  1.00e+00 1.00e+00f  1
  28  1.7609778e+03 1.93e-07 1.85e+06  -1.0 4.72e-01    -  2.18e-01 1.00e+00f  1
  29  1.7609704e+03 1.89e-07 8.15e+05  -1.7 4.95e+00    -  1.22e-01 2.09e-02h  1
WARNING: Problem in step computation; switching to emergency mode.
iter    objective    inf_pr   inf_du lg(mu)  ||d||  lg(rg) alpha_du alpha_pr  ls
  30r 1.7609704e+03 1.89e-07 1.00e+03  -2.5 0.00e+00  19.6 0.00e+00 0.00e+00R  1
  31r 1.7609706e+03 7.45e-08 1.10e+01  -7.5 5.75e-06    -  9.90e-01 6.97e-01f  1
  32  1.7613716e+03 2.58e-08 6.71e+03  -2.5 2.34e-01    -  6.03e-03 9.67e-03h  1
  33  1.7605212e+03 3.16e-06 8.21e+03  -2.5 3.57e+00    -  6.02e-03 6.92e-04f  1
  34  1.7605122e+03 3.30e-06 8.26e+03  -4.4 1.03e+00    -  2.00e-01 2.39e-05f  1
  35  1.7735138e+03 2.79e-03 1.82e+07  -0.6 2.95e-01    -  9.90e-01 1.00e+00f  1
  36  1.7742126e+03 2.11e-03 1.63e+08   0.3 7.11e+00    -  1.00e+00 3.42e-01h  1
  37  1.7645782e+03 4.73e-04 5.47e+06  -0.4 2.99e-01    -  1.00e+00 1.00e+00h  1
  38  1.7610676e+03 6.25e-05 2.42e+06  -1.1 2.27e-01    -  1.00e+00 1.00e+00h  1
  39  1.7605789e+03 8.08e-06 9.74e+05  -1.8 1.99e-01    -  1.00e+00 1.00e+00h  1
iter    objective    inf_pr   inf_du lg(mu)  ||d||  lg(rg) alpha_du alpha_pr  ls
  40  1.7605225e+03 7.36e-06 1.27e+06  -2.7 8.96e-02    -  1.00e+00 5.00e-01f  2
  41  1.7604620e+03 4.52e-06 3.92e+05  -4.3 1.39e-01    -  1.00e+00 1.00e+00f  1
WARNING: Problem in step computation; switching to emergency mode.
  42r 1.7604620e+03 4.52e-06 1.00e+03  -4.3 0.00e+00    -  0.00e+00 0.00e+00R  1
  43r 1.7604448e+03 2.93e-06 2.22e+02  -4.8 1.30e-03    -  9.90e-01 8.63e-01f  1
  44  1.8726009e+03 6.87e-03 8.46e+04  -0.5 1.64e+01    -  1.54e-02 1.82e-02f  1
  45  1.8290031e+03 2.82e-02 5.43e+07   1.8 3.85e-01   4.0 1.00e+00 2.08e-01f  1
  46  1.8350223e+03 4.88e-04 2.00e+07   1.8 2.15e+00    -  3.73e-01 9.90e-01h  1
  47  1.8362309e+03 5.76e-06 2.85e+06   1.1 4.79e-02    -  9.98e-01 9.90e-01h  1
  48  1.8188479e+03 2.60e-06 2.41e+09   0.4 4.07e-02    -  7.62e-01 1.00e+00H  1
  49  1.7754300e+03 2.27e-07 5.57e+04   0.4 1.08e-01    -  1.00e+00 1.00e+00F  1
iter    objective    inf_pr   inf_du lg(mu)  ||d||  lg(rg) alpha_du alpha_pr  ls
  50  1.7648744e+03 6.37e-05 8.95e+07  -0.3 2.72e-02    -  5.23e-01 1.00e+00f  1
  51  1.7611959e+03 8.68e-06 2.95e+06  -1.0 9.46e-03    -  9.77e-01 1.00e+00f  1
  52  1.7606085e+03 2.23e-07 2.57e+03  -1.7 1.51e-03    -  1.00e+00 1.00e+00f  1
  53  1.7604729e+03 1.16e-08 7.86e+05  -2.6 2.66e-03    -  5.15e-01 1.00e+00f  1
  54  1.7604518e+03 2.81e-10 5.03e+05  -3.9 5.31e-03    -  5.12e-01 1.00e+00f  1
  55  1.7604517e+03 3.76e-12 3.19e+02  -4.0 1.06e-02    -  1.00e+00 1.00e+00f  1
  56  1.7604524e+03 1.71e-12 1.59e+02  -3.7 2.12e-02    -  1.00e+00 1.00e+00f  1
  57  1.7604517e+03 4.44e-12 1.37e+03  -3.8 4.26e-02    -  6.28e-01 1.00e+00f  1
  58  1.7604512e+03 5.14e-12 9.19e+03  -5.7 8.61e-02    -  4.33e-01 1.00e+00f  1
  59  1.7604512e+03 3.10e-12 1.39e+03  -4.3 1.67e-01    -  1.00e+00 1.00e+00f  1
iter    objective    inf_pr   inf_du lg(mu)  ||d||  lg(rg) alpha_du alpha_pr  ls
  60  1.7604510e+03 3.53e-12 5.97e+03  -4.4 3.98e-01    -  2.64e-01 1.00e+00f  1
  61  1.7604510e+03 7.61e-09 3.91e+03  -4.1 5.31e-01    -  1.00e+00 1.63e-01f  2
  62  1.7568442e+03 2.07e-03 2.22e+03  -4.2 9.17e-01    -  5.46e-01 4.89e-01f  1
  63  1.7561450e+03 1.79e-03 8.03e+05  -4.6 1.96e-01    -  1.00e+00 1.93e-01f  1
  64  1.7561453e+03 1.79e-03 8.03e+05  -2.6 6.25e+04    -  1.45e-05 3.36e-05h  1
  65  1.7574751e+03 1.50e-03 7.52e+05  -5.2 5.37e-01    -  9.01e-01 6.03e-02h  4
  66  1.7611289e+03 1.59e-07 1.82e+04  -4.9 5.37e-01    -  3.01e-05 1.00e+00H  1
  67  1.7609050e+03 4.27e-08 2.87e+05  -4.9 1.17e-01    -  6.38e-02 1.00e+00f  1
WARNING: Problem in step computation; switching to emergency mode.
  68r 1.7609050e+03 4.27e-08 1.00e+03  -4.9 0.00e+00  19.8 0.00e+00 0.00e+00R  1
  69r 1.7617038e+03 5.84e-07 2.93e+03  -4.5 5.36e-01    -  9.90e-01 3.41e-02f  1
iter    objective    inf_pr   inf_du lg(mu)  ||d||  lg(rg) alpha_du alpha_pr  ls
  70r 1.7616607e+03 2.13e-07 2.54e+02  -9.0 8.93e-04    -  9.89e-01 6.38e-01h  1
  71r 1.7616608e+03 1.67e-07 3.10e+02  -9.0 1.23e-04    -  7.35e-01 2.15e-01h  1
  72r 1.7616626e+03 1.67e-09 4.23e+00  -9.0 4.02e-04    -  5.19e-01 9.90e-01h  1
  73  1.7614606e+03 5.22e-07 2.32e+02  -4.9 1.67e+00    -  1.35e-01 3.53e-04f  2
  74  1.7602989e+03 6.69e-05 3.55e+03  -4.9 1.01e-01    -  8.61e-01 3.14e-02f  1
  75  1.7561390e+03 1.92e-03 3.40e+02  -5.3 1.07e-02    -  9.72e-01 9.16e-01f  1
  76  1.7604652e+03 6.20e-06 7.04e+03  -2.8 4.83e-01    -  9.91e-01 1.00e+00H  1
  77  1.7604765e+03 5.13e-06 2.21e+05  -1.9 6.88e+00    -  1.00e+00 1.80e-01f  2
  78  1.7605510e+03 1.61e-07 3.75e+06  -1.9 1.39e+00    -  9.05e-01 9.92e-01h  1
  79  1.7605510e+03 9.43e-11 1.04e+08  -1.9 1.26e-02    -  1.00e+00 1.00e+00h  1
iter    objective    inf_pr   inf_du lg(mu)  ||d||  lg(rg) alpha_du alpha_pr  ls
  80  1.7604616e+03 2.28e-09 5.97e+05  -2.9 4.32e-02    -  4.24e-01 1.00e+00f  1
  81  1.7604512e+03 9.30e-11 4.68e+05  -4.3 8.75e-02    -  3.49e-01 1.00e+00f  1
  82  1.7604508e+03 1.84e-08 3.70e+05  -6.5 3.33e-01    -  2.17e-01 1.00e+00f  1
  83  1.7604532e+03 3.71e-06 1.31e+06  -2.7 1.85e-01    -  1.00e+00 8.75e-02f  1
  84  1.7605602e+03 5.21e-05 8.27e+04  -2.7 2.40e-01    -  1.00e+00 1.00e+00f  1
  85  1.7604321e+03 1.15e-05 1.30e+05  -4.0 2.10e-01    -  2.82e-01 9.98e-01f  1
  86  1.7604657e+03 1.18e-06 2.19e+04  -3.0 2.09e-01    -  1.00e+00 1.00e+00f  1
  87  1.7604588e+03 3.21e-06 1.76e+04  -3.0 5.40e+00    -  1.94e-01 1.60e-01f  2
WARNING: Problem in step computation; switching to emergency mode.
  88r 1.7604588e+03 3.21e-06 1.00e+03  -4.6 0.00e+00    -  0.00e+00 0.00e+00R  1
  89r 1.7604579e+03 3.77e-06 1.60e+04  -3.8 1.56e-02    -  9.71e-01 4.42e-02f  1
iter    objective    inf_pr   inf_du lg(mu)  ||d||  lg(rg) alpha_du alpha_pr  ls
  90  1.7604539e+03 3.77e-06 1.47e+04  -4.6 3.00e+00    -  1.66e-01 6.51e-04f  1
WARNING: Problem in step computation; switching to emergency mode.
  91r 1.7604539e+03 3.77e-06 8.11e+02  -4.6 0.00e+00    -  0.00e+00 0.00e+00R  1
  92r 1.7604585e+03 1.73e-06 8.37e+02  -4.9 4.12e-05    -  9.90e-01 2.56e-01f  1
  93  1.7604518e+03 2.97e-06 1.16e+04  -4.6 2.92e-02    -  9.01e-01 4.87e-04f  1
  94  1.7604523e+03 2.97e-06 3.90e+06  -4.6 1.50e+01    -  1.37e-06 1.05e-04f  7
WARNING: Problem in step computation; switching to emergency mode.
  95r 1.7604523e+03 2.97e-06 1.00e+03  -4.6 0.00e+00    -  0.00e+00 0.00e+00R  1
  96r 1.7604643e+03 1.31e-06 1.95e+02  -5.9 3.50e-05    -  8.84e-01 6.25e-01f  1
  97  1.7604600e+03 5.26e-07 3.92e+03  -4.6 2.97e-02    -  8.99e-01 3.06e-04f  1
  98  1.7604599e+03 5.17e-07 1.65e+05  -4.6 3.00e+00    -  1.67e-01 1.65e-02f  2
  99  1.7604599e+03 5.17e-07 1.99e+05  -4.6 2.31e-15  19.9 9.99e-01 1.00e+00   0
iter    objective    inf_pr   inf_du lg(mu)  ||d||  lg(rg) alpha_du alpha_pr  ls
 100  1.7604599e+03 5.17e-07 1.99e+05  -4.6 6.92e-15  19.5 1.00e+00 1.00e+00h  1
 101  1.7604599e+03 5.17e-07 6.60e+04  -6.8 6.88e-15  19.0 1.00e+00 1.00e+00h  1
 102  1.7604599e+03 5.17e-07 1.89e+04  -9.0 5.92e-15  18.5 1.00e+00 1.00e+00h  1
 103  1.7604599e+03 5.17e-07 3.01e+03  -9.0 2.83e-15  18.0 1.00e+00 1.00e+00h  1
 104  1.7604599e+03 5.17e-07 1.14e+03  -9.0 3.22e-15  17.6 1.00e+00 1.00e+00h  1
 105  1.7604599e+03 5.17e-07 1.04e+03  -9.0 8.81e-15  17.1 1.00e+00 1.00e+00h  1
 106  1.7604599e+03 5.17e-07 1.27e+03  -9.0 4.03e-15  17.5 1.00e+00 1.00e+00h  1
 107  1.7604599e+03 5.17e-07 2.22e+03  -9.0 2.11e-14  17.0 1.00e+00 1.00e+00h  1
 108  1.7604599e+03 5.17e-07 2.74e+03  -9.0 9.77e-15  17.4 1.00e+00 1.00e+00h  1
 109  1.7604599e+03 5.17e-07 5.47e+03  -9.0 5.85e-14  17.0 1.00e+00 1.00e+00h  1
iter    objective    inf_pr   inf_du lg(mu)  ||d||  lg(rg) alpha_du alpha_pr  ls
 110  1.7604599e+03 5.17e-07 6.75e+03  -9.0 2.71e-14  17.4 1.00e+00 1.00e+00h  1
 111  1.7604599e+03 5.17e-07 1.50e+04  -9.0 1.80e-13  16.9 1.00e+00 1.00e+00h  1
 112  1.7604599e+03 5.17e-07 1.69e+04  -9.0 8.48e-14  17.3 1.00e+00 5.00e-01h  2

Number of Iterations....: 112

                                   (scaled)                 (unscaled)
Objective...............:   6.1495242459100587e+02    1.7604598678150726e+03
Dual infeasibility......:   1.6895131870093453e+04    4.8366671029103796e+04
Constraint violation....:   1.2555530843431604e-08    5.1715244175909447e-07
Complementarity.........:   9.0909114921266619e-10    2.6025078044682779e-09
Overall NLP error.......:   3.2675149547317628e-07    4.8366671029103796e+04


Number of objective function evaluations             = 176
Number of objective gradient evaluations             = 105
Number of equality constraint evaluations            = 176
Number of inequality constraint evaluations          = 176
Number of equality constraint Jacobian evaluations   = 115
Number of inequality constraint Jacobian evaluations = 115
Number of Lagrangian Hessian evaluations             = 113
Total CPU secs in IPOPT (w/o function evaluations)   =      0.098
Total CPU secs in NLP function evaluations           =      0.009

EXIT: Solved To Acceptable Level.
